param M := 70;
param J := 10;

param Processing :=
1 7
2 5
3 4
4 3
5 11
6 3
7 12
8 9
9 7
10 9;

param Duetime :=
1 60
2 58
3 55
4 59
5 77
6 60
7 42
8 59
9 88
10 80;

param Release :=
1 8
2 10
3 2
4 4
5 22
6 14
7 0
8 12
9 8
10 15;